(declare-fun insertFn (Int RBTree) RBTree)
(declare-fun t () RBTree)
(declare-fun NoTwoRedsFn (RBTree) BoolColor)
(declare-fun insFn (Int RBTree) RBTree)
(assert (forall ((v0 Int)) (and (or ((_ is RBTree_Leaf) t) (and (not ((_ is RBTree_Leaf) (insertFn v0 t))) (not (BoolColor_res (NoTwoRedsFn (RBTree_Node_recd_left (destRBTree_Node (insertFn v0 t)))))))) (= (insertFn v0 t) (insFn v0 t)) (= (NoTwoRedsFn (RBTree_Node_recd_left (destRBTree_Node (insertFn v0 t)))) (ite ((_ is RBTree_Leaf) (RBTree_Node_recd_left (destRBTree_Node (insertFn v0 t)))) (BoolColor true ColorType_Black) (BoolColor (or (not (= ColorType_Red (RBTree_Node_recd_color (destRBTree_Node (RBTree_Node_recd_left (destRBTree_Node (insertFn v0 t))))))) (and (not (= (BoolColor_color (NoTwoRedsFn (RBTree_Node_recd_right (destRBTree_Node (RBTree_Node_recd_left (destRBTree_Node t)))))) ColorType_Red)) (not (= ColorType_Red (BoolColor_color (NoTwoRedsFn (RBTree_Node_recd_left (destRBTree_Node (RBTree_Node_recd_left (destRBTree_Node (insertFn v0 t))))))))))) (RBTree_Node_recd_color (destRBTree_Node (RBTree_Node_recd_left (destRBTree_Node (insertFn v0 t)))))))) true (= (NoTwoRedsFn (RBTree_Node_recd_left (destRBTree_Node t))) (ite ((_ is RBTree_Leaf) (RBTree_Node_recd_left (destRBTree_Node t))) (BoolColor true ColorType_Black) (BoolColor (and (BoolColor_res (NoTwoRedsFn (RBTree_Node_recd_left (destRBTree_Node (RBTree_Node_recd_left (destRBTree_Node t)))))) (BoolColor_res (NoTwoRedsFn (RBTree_Node_recd_right (destRBTree_Node (RBTree_Node_recd_left (destRBTree_Node t))))))) (RBTree_Node_recd_color (destRBTree_Node (RBTree_Node_recd_left (destRBTree_Node t))))))) (= (NoTwoRedsFn (RBTree_Node_recd_right (destRBTree_Node t))) (ite ((_ is RBTree_Leaf) (RBTree_Node_recd_right (destRBTree_Node t))) (BoolColor true ColorType_Black) (BoolColor (and (BoolColor_res (NoTwoRedsFn (RBTree_Node_recd_left (destRBTree_Node (RBTree_Node_recd_right (destRBTree_Node t)))))) (BoolColor_res (NoTwoRedsFn (RBTree_Node_recd_right (destRBTree_Node (RBTree_Node_recd_right (destRBTree_Node t)))))) (or (not (= ColorType_Red (RBTree_Node_recd_color (destRBTree_Node (RBTree_Node_recd_right (destRBTree_Node t)))))) (= (BoolColor_color (NoTwoRedsFn (RBTree_Node_recd_right (destRBTree_Node (RBTree_Node_recd_right (destRBTree_Node t)))))) ColorType_Red))) (RBTree_Node_recd_color (destRBTree_Node (RBTree_Node_recd_right (destRBTree_Node t))))))) (= (RBTree_Node_recd_left (destRBTree_Node t)) (insertFn v0 (RBTree_Node_recd_left (destRBTree_Node t)))) (= (NoTwoRedsFn (RBTree_Node_recd_left (destRBTree_Node t))) (BoolColor (BoolColor_res (NoTwoRedsFn (RBTree_Node_recd_right (destRBTree_Node (RBTree_Node_recd_left (destRBTree_Node t)))))) (RBTree_Node_recd_color (destRBTree_Node (insertFn v0 (RBTree_Node_recd_left (destRBTree_Node t))))))))))
(check-sat)
